NAME 
OBJSENSE MAX
ROWS
 N  OBJ
 L  packing[0]
 L  packing[1]
 L  packing[2]
 L  packing[3]
 L  packing[4]
 L  packing[5]
 L  packing[6]
 L  packing[7]
 L  packing[8]
 L  packing[9]
 L  packing[10]
 L  packing[11]
 L  packing[12]
 L  packing[13]
 L  packing[14]
 L  packing[15]
 L  packing[16]
 L  packing[17]
 L  packing[18]
 L  packing[19]
 L  packing[20]
 L  packing[21]
 L  packing[22]
 L  packing[23]
 L  packing[24]
 L  packing[25]
 L  packing[26]
 L  packing[27]
 L  packing[28]
 L  packing[29]
 L  packing[30]
 L  packing[31]
 L  packing[32]
 L  packing[33]
 L  packing[34]
 L  packing[35]
 L  packing[36]
 L  packing[37]
 L  packing[38]
 L  packing[39]
 L  packing[40]
 L  packing[41]
 L  packing[42]
 L  packing[43]
 L  packing[44]
 L  packing[45]
 L  packing[46]
 L  packing[47]
 L  packing[48]
 L  packing[49]
 L  R60     
 L  R61     
 L  R62     
 L  R63     
 L  R64     
 L  R65     
 L  R66     
 L  R67     
 L  R68     
 L  R69     
COLUMNS
    MARKER    'MARKER'                 'INTORG'
    x[1]      OBJ       156
    x[1]      packing[0]  20
    x[1]      packing[2]  115
    x[1]      packing[4]  46
    x[1]      packing[5]  195
    x[1]      packing[6]  91
    x[1]      packing[7]  27
    x[1]      packing[8]  117
    x[1]      packing[9]  35
    x[1]      packing[11]  74
    x[1]      packing[12]  81
    x[1]      packing[13]  87
    x[1]      packing[14]  107
    x[1]      packing[17]  134
    x[1]      packing[18]  163
    x[1]      packing[21]  88
    x[1]      packing[22]  117
    x[1]      packing[23]  147
    x[1]      packing[26]  178
    x[1]      packing[27]  31
    x[1]      packing[30]  57
    x[1]      packing[31]  182
    x[1]      packing[32]  100
    x[1]      packing[34]  25
    x[1]      packing[35]  73
    x[1]      packing[36]  194
    x[1]      packing[39]  173
    x[1]      packing[40]  113
    x[1]      packing[41]  141
    x[1]      packing[44]  138
    x[1]      packing[46]  180
    x[1]      packing[47]  133
    x[1]      packing[48]  139
    x[1]      packing[49]  28
    x[1]      R62       1
    x[1]      R63       1
    x[1]      R64       1
    x[1]      R67       1
    x[1]      R69       1
    x[2]      OBJ       200
    x[2]      packing[0]  187
    x[2]      packing[1]  139
    x[2]      packing[2]  63
    x[2]      packing[3]  188
    x[2]      packing[4]  126
    x[2]      packing[5]  169
    x[2]      packing[8]  86
    x[2]      packing[9]  113
    x[2]      packing[10]  121
    x[2]      packing[11]  182
    x[2]      packing[12]  147
    x[2]      packing[13]  7
    x[2]      packing[15]  14
    x[2]      packing[16]  57
    x[2]      packing[17]  34
    x[2]      packing[19]  137
    x[2]      packing[20]  142
    x[2]      packing[21]  143
    x[2]      packing[22]  134
    x[2]      packing[24]  34
    x[2]      packing[25]  105
    x[2]      packing[28]  183
    x[2]      packing[29]  128
    x[2]      packing[30]  80
    x[2]      packing[31]  193
    x[2]      packing[32]  95
    x[2]      packing[34]  151
    x[2]      packing[38]  197
    x[2]      packing[40]  124
    x[2]      packing[41]  156
    x[2]      packing[42]  24
    x[2]      packing[43]  33
    x[2]      packing[45]  31
    x[2]      packing[47]  118
    x[2]      packing[48]  97
    x[2]      R60       1
    x[2]      R61       1
    x[2]      R62       1
    x[2]      R63       1
    x[2]      R65       1
    x[2]      R66       1
    x[2]      R68       1
    x[3]      OBJ       60
    x[3]      packing[0]  11
    x[3]      packing[1]  181
    x[3]      packing[2]  46
    x[3]      packing[3]  118
    x[3]      packing[4]  46
    x[3]      packing[5]  84
    x[3]      packing[6]  121
    x[3]      packing[7]  145
    x[3]      packing[10]  147
    x[3]      packing[11]  95
    x[3]      packing[12]  52
    x[3]      packing[13]  25
    x[3]      packing[14]  148
    x[3]      packing[15]  190
    x[3]      packing[16]  20
    x[3]      packing[17]  10
    x[3]      packing[20]  26
    x[3]      packing[21]  101
    x[3]      packing[22]  30
    x[3]      packing[24]  139
    x[3]      packing[25]  171
    x[3]      packing[26]  145
    x[3]      packing[28]  196
    x[3]      packing[30]  78
    x[3]      packing[31]  133
    x[3]      packing[32]  153
    x[3]      packing[33]  196
    x[3]      packing[34]  100
    x[3]      packing[35]  1
    x[3]      packing[36]  3
    x[3]      packing[38]  137
    x[3]      packing[39]  81
    x[3]      packing[40]  8
    x[3]      packing[41]  187
    x[3]      packing[43]  122
    x[3]      packing[44]  117
    x[3]      packing[45]  22
    x[3]      packing[46]  4
    x[3]      packing[47]  176
    x[3]      packing[48]  76
    x[3]      packing[49]  134
    x[4]      OBJ       38
    x[4]      packing[0]  178
    x[4]      packing[1]  2
    x[4]      packing[2]  29
    x[4]      packing[3]  154
    x[4]      packing[4]  93
    x[4]      packing[5]  114
    x[4]      packing[6]  184
    x[4]      packing[7]  167
    x[4]      packing[8]  155
    x[4]      packing[9]  2
    x[4]      packing[11]  45
    x[4]      packing[12]  3
    x[4]      packing[13]  192
    x[4]      packing[14]  12
    x[4]      packing[15]  148
    x[4]      packing[16]  171
    x[4]      packing[17]  60
    x[4]      packing[18]  13
    x[4]      packing[20]  150
    x[4]      packing[21]  81
    x[4]      packing[22]  131
    x[4]      packing[24]  28
    x[4]      packing[26]  191
    x[4]      packing[27]  131
    x[4]      packing[28]  33
    x[4]      packing[29]  51
    x[4]      packing[30]  46
    x[4]      packing[31]  197
    x[4]      packing[32]  131
    x[4]      packing[33]  39
    x[4]      packing[36]  39
    x[4]      packing[37]  88
    x[4]      packing[38]  187
    x[4]      packing[39]  142
    x[4]      packing[40]  146
    x[4]      packing[43]  11
    x[4]      packing[44]  172
    x[4]      packing[45]  172
    x[4]      packing[46]  73
    x[4]      packing[48]  106
    x[4]      packing[49]  72
    x[5]      OBJ       26
    x[5]      packing[0]  186
    x[5]      packing[2]  37
    x[5]      packing[7]  66
    x[5]      packing[8]  171
    x[5]      packing[10]  50
    x[5]      packing[12]  58
    x[5]      packing[13]  98
    x[5]      packing[14]  186
    x[5]      packing[16]  184
    x[5]      packing[17]  9
    x[5]      packing[18]  186
    x[5]      packing[20]  26
    x[5]      packing[21]  114
    x[5]      packing[22]  54
    x[5]      packing[23]  119
    x[5]      packing[24]  55
    x[5]      packing[25]  91
    x[5]      packing[27]  186
    x[5]      packing[28]  17
    x[5]      packing[29]  120
    x[5]      packing[30]  68
    x[5]      packing[31]  184
    x[5]      packing[32]  141
    x[5]      packing[33]  55
    x[5]      packing[34]  156
    x[5]      packing[37]  6
    x[5]      packing[39]  191
    x[5]      packing[40]  167
    x[5]      packing[41]  181
    x[5]      packing[42]  105
    x[5]      packing[43]  57
    x[5]      packing[44]  56
    x[5]      packing[45]  166
    x[5]      packing[47]  112
    x[5]      packing[48]  85
    x[5]      packing[49]  35
    x[6]      OBJ       130
    x[6]      packing[0]  180
    x[6]      packing[2]  140
    x[6]      packing[3]  74
    x[6]      packing[5]  67
    x[6]      packing[6]  190
    x[6]      packing[8]  14
    x[6]      packing[10]  198
    x[6]      packing[11]  76
    x[6]      packing[12]  153
    x[6]      packing[13]  152
    x[6]      packing[14]  159
    x[6]      packing[15]  73
    x[6]      packing[16]  48
    x[6]      packing[17]  115
    x[6]      packing[18]  168
    x[6]      packing[20]  74
    x[6]      packing[21]  113
    x[6]      packing[23]  57
    x[6]      packing[25]  194
    x[6]      packing[26]  73
    x[6]      packing[27]  163
    x[6]      packing[29]  103
    x[6]      packing[30]  68
    x[6]      packing[32]  111
    x[6]      packing[33]  133
    x[6]      packing[34]  134
    x[6]      packing[35]  143
    x[6]      packing[36]  3
    x[6]      packing[37]  71
    x[6]      packing[38]  154
    x[6]      packing[39]  110
    x[6]      packing[40]  125
    x[6]      packing[41]  156
    x[6]      packing[42]  177
    x[6]      packing[44]  173
    x[6]      packing[45]  146
    x[6]      packing[48]  20
    x[6]      R63       1
    x[6]      R64       1
    x[6]      R65       1
    x[6]      R67       1
    x[6]      R68       1
    x[7]      OBJ       57
    x[7]      packing[0]  97
    x[7]      packing[2]  101
    x[7]      packing[3]  166
    x[7]      packing[5]  193
    x[7]      packing[6]  86
    x[7]      packing[7]  23
    x[7]      packing[8]  40
    x[7]      packing[9]  197
    x[7]      packing[12]  154
    x[7]      packing[13]  89
    x[7]      packing[15]  83
    x[7]      packing[16]  3
    x[7]      packing[20]  30
    x[7]      packing[21]  113
    x[7]      packing[22]  162
    x[7]      packing[23]  23
    x[7]      packing[24]  189
    x[7]      packing[25]  46
    x[7]      packing[26]  96
    x[7]      packing[27]  92
    x[7]      packing[28]  159
    x[7]      packing[29]  145
    x[7]      packing[30]  57
    x[7]      packing[32]  129
    x[7]      packing[33]  35
    x[7]      packing[34]  89
    x[7]      packing[35]  46
    x[7]      packing[36]  16
    x[7]      packing[37]  83
    x[7]      packing[38]  11
    x[7]      packing[39]  169
    x[7]      packing[40]  6
    x[7]      packing[41]  18
    x[7]      packing[42]  54
    x[7]      packing[43]  16
    x[7]      packing[44]  4
    x[7]      packing[45]  61
    x[7]      packing[46]  77
    x[7]      packing[47]  39
    x[7]      packing[48]  68
    x[8]      OBJ       129
    x[8]      packing[0]  66
    x[8]      packing[1]  194
    x[8]      packing[2]  186
    x[8]      packing[4]  83
    x[8]      packing[6]  62
    x[8]      packing[7]  194
    x[8]      packing[8]  183
    x[8]      packing[9]  73
    x[8]      packing[10]  104
    x[8]      packing[11]  93
    x[8]      packing[12]  80
    x[8]      packing[14]  97
    x[8]      packing[15]  172
    x[8]      packing[16]  49
    x[8]      packing[17]  74
    x[8]      packing[19]  49
    x[8]      packing[20]  88
    x[8]      packing[21]  176
    x[8]      packing[23]  148
    x[8]      packing[24]  63
    x[8]      packing[25]  171
    x[8]      packing[27]  155
    x[8]      packing[28]  54
    x[8]      packing[29]  142
    x[8]      packing[31]  66
    x[8]      packing[32]  29
    x[8]      packing[33]  57
    x[8]      packing[35]  109
    x[8]      packing[36]  168
    x[8]      packing[37]  99
    x[8]      packing[38]  158
    x[8]      packing[39]  187
    x[8]      packing[40]  145
    x[8]      packing[41]  135
    x[8]      packing[42]  28
    x[8]      packing[44]  135
    x[8]      packing[46]  157
    x[8]      packing[47]  121
    x[8]      packing[48]  100
    x[8]      packing[49]  34
    x[9]      OBJ       11
    x[9]      packing[1]  15
    x[9]      packing[2]  85
    x[9]      packing[4]  138
    x[9]      packing[5]  167
    x[9]      packing[6]  180
    x[9]      packing[7]  76
    x[9]      packing[8]  76
    x[9]      packing[9]  117
    x[9]      packing[10]  17
    x[9]      packing[11]  77
    x[9]      packing[12]  94
    x[9]      packing[14]  154
    x[9]      packing[16]  153
    x[9]      packing[19]  6
    x[9]      packing[20]  91
    x[9]      packing[21]  106
    x[9]      packing[22]  143
    x[9]      packing[23]  76
    x[9]      packing[24]  158
    x[9]      packing[25]  168
    x[9]      packing[27]  95
    x[9]      packing[28]  173
    x[9]      packing[29]  33
    x[9]      packing[30]  116
    x[9]      packing[32]  199
    x[9]      packing[33]  199
    x[9]      packing[34]  153
    x[9]      packing[35]  30
    x[9]      packing[36]  180
    x[9]      packing[37]  100
    x[9]      packing[39]  151
    x[9]      packing[40]  48
    x[9]      packing[41]  196
    x[9]      packing[43]  5
    x[9]      packing[44]  43
    x[9]      packing[45]  29
    x[9]      packing[47]  155
    x[9]      packing[48]  89
    x[10]     OBJ       31
    x[10]     packing[0]  185
    x[10]     packing[1]  104
    x[10]     packing[2]  18
    x[10]     packing[3]  85
    x[10]     packing[4]  79
    x[10]     packing[6]  100
    x[10]     packing[8]  73
    x[10]     packing[9]  35
    x[10]     packing[10]  116
    x[10]     packing[11]  83
    x[10]     packing[12]  113
    x[10]     packing[13]  190
    x[10]     packing[16]  41
    x[10]     packing[17]  3
    x[10]     packing[19]  13
    x[10]     packing[21]  89
    x[10]     packing[22]  123
    x[10]     packing[23]  193
    x[10]     packing[24]  19
    x[10]     packing[25]  11
    x[10]     packing[26]  14
    x[10]     packing[27]  185
    x[10]     packing[29]  79
    x[10]     packing[30]  177
    x[10]     packing[31]  88
    x[10]     packing[33]  185
    x[10]     packing[34]  172
    x[10]     packing[35]  71
    x[10]     packing[36]  173
    x[10]     packing[37]  78
    x[10]     packing[40]  183
    x[10]     packing[41]  132
    x[10]     packing[42]  94
    x[10]     packing[43]  148
    x[10]     packing[44]  129
    x[10]     packing[47]  50
    x[10]     packing[48]  91
    x[10]     packing[49]  134
    x[11]     OBJ       88
    x[11]     packing[0]  22
    x[11]     packing[2]  12
    x[11]     packing[3]  176
    x[11]     packing[4]  120
    x[11]     packing[5]  152
    x[11]     packing[7]  150
    x[11]     packing[8]  68
    x[11]     packing[9]  142
    x[11]     packing[10]  36
    x[11]     packing[11]  85
    x[11]     packing[12]  58
    x[11]     packing[13]  144
    x[11]     packing[14]  72
    x[11]     packing[15]  142
    x[11]     packing[16]  29
    x[11]     packing[18]  99
    x[11]     packing[19]  81
    x[11]     packing[21]  122
    x[11]     packing[22]  95
    x[11]     packing[23]  62
    x[11]     packing[24]  196
    x[11]     packing[25]  26
    x[11]     packing[26]  60
    x[11]     packing[28]  48
    x[11]     packing[30]  195
    x[11]     packing[31]  155
    x[11]     packing[32]  33
    x[11]     packing[33]  153
    x[11]     packing[36]  3
    x[11]     packing[37]  175
    x[11]     packing[38]  104
    x[11]     packing[39]  171
    x[11]     packing[40]  140
    x[11]     packing[42]  163
    x[11]     packing[43]  181
    x[11]     packing[44]  122
    x[11]     packing[45]  199
    x[11]     packing[49]  160
    x[11]     R61       1
    x[11]     R62       1
    x[11]     R65       1
    x[11]     R66       1
    x[11]     R67       1
    x[11]     R68       1
    x[12]     OBJ       64
    x[12]     packing[0]  149
    x[12]     packing[2]  17
    x[12]     packing[3]  31
    x[12]     packing[6]  67
    x[12]     packing[7]  88
    x[12]     packing[11]  137
    x[12]     packing[12]  126
    x[12]     packing[14]  8
    x[12]     packing[15]  13
    x[12]     packing[16]  121
    x[12]     packing[17]  133
    x[12]     packing[18]  17
    x[12]     packing[20]  196
    x[12]     packing[23]  156
    x[12]     packing[24]  104
    x[12]     packing[25]  7
    x[12]     packing[26]  72
    x[12]     packing[27]  44
    x[12]     packing[28]  32
    x[12]     packing[29]  58
    x[12]     packing[30]  168
    x[12]     packing[31]  42
    x[12]     packing[33]  134
    x[12]     packing[34]  98
    x[12]     packing[35]  181
    x[12]     packing[36]  198
    x[12]     packing[37]  169
    x[12]     packing[38]  143
    x[12]     packing[40]  140
    x[12]     packing[41]  131
    x[12]     packing[43]  30
    x[12]     packing[46]  128
    x[12]     packing[47]  7
    x[12]     packing[48]  93
    x[12]     packing[49]  162
    x[13]     OBJ       110
    x[13]     packing[0]  89
    x[13]     packing[1]  37
    x[13]     packing[4]  182
    x[13]     packing[5]  32
    x[13]     packing[6]  139
    x[13]     packing[7]  105
    x[13]     packing[9]  84
    x[13]     packing[10]  102
    x[13]     packing[11]  51
    x[13]     packing[12]  107
    x[13]     packing[13]  196
    x[13]     packing[16]  106
    x[13]     packing[17]  64
    x[13]     packing[18]  144
    x[13]     packing[19]  31
    x[13]     packing[21]  56
    x[13]     packing[23]  99
    x[13]     packing[24]  83
    x[13]     packing[25]  34
    x[13]     packing[26]  68
    x[13]     packing[28]  85
    x[13]     packing[30]  158
    x[13]     packing[31]  94
    x[13]     packing[32]  117
    x[13]     packing[33]  120
    x[13]     packing[34]  166
    x[13]     packing[35]  6
    x[13]     packing[37]  28
    x[13]     packing[38]  182
    x[13]     packing[39]  93
    x[13]     packing[40]  176
    x[13]     packing[41]  130
    x[13]     packing[43]  74
    x[13]     packing[44]  36
    x[13]     packing[45]  87
    x[13]     packing[46]  139
    x[13]     packing[47]  84
    x[13]     packing[48]  99
    x[13]     packing[49]  198
    x[13]     R62       1
    x[13]     R63       1
    x[13]     R69       1
    x[14]     OBJ       110
    x[14]     packing[0]  193
    x[14]     packing[2]  148
    x[14]     packing[3]  75
    x[14]     packing[4]  55
    x[14]     packing[5]  61
    x[14]     packing[6]  75
    x[14]     packing[7]  88
    x[14]     packing[9]  159
    x[14]     packing[10]  158
    x[14]     packing[12]  33
    x[14]     packing[13]  100
    x[14]     packing[14]  147
    x[14]     packing[15]  110
    x[14]     packing[17]  106
    x[14]     packing[18]  129
    x[14]     packing[19]  122
    x[14]     packing[20]  57
    x[14]     packing[22]  77
    x[14]     packing[23]  140
    x[14]     packing[24]  120
    x[14]     packing[25]  51
    x[14]     packing[26]  128
    x[14]     packing[27]  61
    x[14]     packing[28]  8
    x[14]     packing[29]  81
    x[14]     packing[31]  126
    x[14]     packing[32]  46
    x[14]     packing[33]  161
    x[14]     packing[34]  82
    x[14]     packing[35]  2
    x[14]     packing[36]  71
    x[14]     packing[37]  116
    x[14]     packing[40]  115
    x[14]     packing[41]  137
    x[14]     packing[42]  164
    x[14]     packing[44]  140
    x[14]     packing[45]  114
    x[14]     packing[46]  55
    x[14]     packing[48]  54
    x[14]     packing[49]  62
    x[15]     OBJ       135
    x[15]     packing[0]  41
    x[15]     packing[1]  158
    x[15]     packing[2]  95
    x[15]     packing[3]  17
    x[15]     packing[4]  52
    x[15]     packing[5]  113
    x[15]     packing[6]  139
    x[15]     packing[8]  164
    x[15]     packing[9]  18
    x[15]     packing[10]  109
    x[15]     packing[11]  110
    x[15]     packing[13]  53
    x[15]     packing[14]  72
    x[15]     packing[15]  153
    x[15]     packing[16]  134
    x[15]     packing[17]  64
    x[15]     packing[19]  40
    x[15]     packing[20]  194
    x[15]     packing[22]  100
    x[15]     packing[25]  39
    x[15]     packing[27]  38
    x[15]     packing[28]  142
    x[15]     packing[29]  171
    x[15]     packing[30]  86
    x[15]     packing[31]  138
    x[15]     packing[32]  177
    x[15]     packing[33]  15
    x[15]     packing[34]  117
    x[15]     packing[35]  118
    x[15]     packing[39]  35
    x[15]     packing[40]  51
    x[15]     packing[41]  21
    x[15]     packing[42]  61
    x[15]     packing[43]  114
    x[15]     packing[44]  187
    x[15]     packing[45]  147
    x[15]     packing[46]  4
    x[15]     packing[49]  53
    x[15]     R60       1
    x[15]     R61       1
    x[15]     R62       1
    x[15]     R63       1
    x[15]     R64       1
    x[15]     R65       1
    x[15]     R66       1
    x[15]     R67       1
    x[15]     R68       1
    x[15]     R69       1
    x[16]     OBJ       102
    x[16]     packing[1]  20
    x[16]     packing[2]  131
    x[16]     packing[3]  131
    x[16]     packing[4]  83
    x[16]     packing[7]  34
    x[16]     packing[9]  168
    x[16]     packing[11]  159
    x[16]     packing[14]  171
    x[16]     packing[15]  154
    x[16]     packing[16]  147
    x[16]     packing[17]  42
    x[16]     packing[18]  86
    x[16]     packing[20]  167
    x[16]     packing[21]  156
    x[16]     packing[24]  146
    x[16]     packing[27]  91
    x[16]     packing[28]  176
    x[16]     packing[29]  7
    x[16]     packing[30]  172
    x[16]     packing[31]  118
    x[16]     packing[32]  6
    x[16]     packing[33]  134
    x[16]     packing[34]  121
    x[16]     packing[35]  56
    x[16]     packing[36]  35
    x[16]     packing[38]  155
    x[16]     packing[39]  139
    x[16]     packing[40]  2
    x[16]     packing[41]  149
    x[16]     packing[42]  191
    x[16]     packing[43]  23
    x[16]     packing[44]  98
    x[16]     packing[45]  149
    x[16]     packing[46]  142
    x[16]     packing[47]  186
    x[16]     packing[49]  75
    x[16]     R61       1
    x[16]     R65       1
    x[16]     R67       1
    x[16]     R68       1
    x[16]     R69       1
    x[17]     OBJ       165
    x[17]     packing[1]  62
    x[17]     packing[3]  140
    x[17]     packing[4]  132
    x[17]     packing[6]  49
    x[17]     packing[8]  34
    x[17]     packing[9]  52
    x[17]     packing[10]  99
    x[17]     packing[15]  15
    x[17]     packing[16]  9
    x[17]     packing[17]  24
    x[17]     packing[19]  25
    x[17]     packing[20]  107
    x[17]     packing[21]  10
    x[17]     packing[23]  123
    x[17]     packing[24]  84
    x[17]     packing[26]  155
    x[17]     packing[27]  185
    x[17]     packing[28]  1
    x[17]     packing[31]  126
    x[17]     packing[32]  46
    x[17]     packing[33]  25
    x[17]     packing[34]  54
    x[17]     packing[35]  93
    x[17]     packing[36]  45
    x[17]     packing[37]  84
    x[17]     packing[38]  150
    x[17]     packing[39]  81
    x[17]     packing[41]  192
    x[17]     packing[44]  98
    x[17]     packing[45]  107
    x[17]     packing[48]  145
    x[17]     R60       1
    x[17]     R61       1
    x[17]     R62       1
    x[17]     R63       1
    x[17]     R64       1
    x[17]     R67       1
    x[17]     R68       1
    x[18]     OBJ       15
    x[18]     packing[0]  90
    x[18]     packing[2]  62
    x[18]     packing[4]  27
    x[18]     packing[5]  122
    x[18]     packing[6]  125
    x[18]     packing[7]  59
    x[18]     packing[8]  198
    x[18]     packing[9]  51
    x[18]     packing[11]  191
    x[18]     packing[12]  54
    x[18]     packing[13]  116
    x[18]     packing[14]  147
    x[18]     packing[15]  150
    x[18]     packing[16]  100
    x[18]     packing[17]  39
    x[18]     packing[18]  102
    x[18]     packing[19]  149
    x[18]     packing[20]  177
    x[18]     packing[22]  89
    x[18]     packing[23]  126
    x[18]     packing[24]  29
    x[18]     packing[26]  69
    x[18]     packing[27]  115
    x[18]     packing[28]  85
    x[18]     packing[29]  151
    x[18]     packing[30]  2
    x[18]     packing[31]  193
    x[18]     packing[33]  171
    x[18]     packing[34]  45
    x[18]     packing[35]  197
    x[18]     packing[38]  114
    x[18]     packing[39]  75
    x[18]     packing[40]  72
    x[18]     packing[41]  133
    x[18]     packing[42]  51
    x[18]     packing[43]  1
    x[18]     packing[44]  10
    x[18]     packing[45]  90
    x[18]     packing[47]  190
    x[18]     packing[48]  161
    x[18]     packing[49]  136
    x[19]     OBJ       90
    x[19]     packing[0]  108
    x[19]     packing[1]  193
    x[19]     packing[2]  153
    x[19]     packing[3]  38
    x[19]     packing[4]  17
    x[19]     packing[5]  46
    x[19]     packing[6]  66
    x[19]     packing[8]  103
    x[19]     packing[9]  70
    x[19]     packing[10]  92
    x[19]     packing[11]  195
    x[19]     packing[12]  23
    x[19]     packing[13]  87
    x[19]     packing[14]  52
    x[19]     packing[15]  15
    x[19]     packing[16]  175
    x[19]     packing[17]  9
    x[19]     packing[18]  94
    x[19]     packing[21]  140
    x[19]     packing[22]  24
    x[19]     packing[24]  181
    x[19]     packing[25]  169
    x[19]     packing[26]  6
    x[19]     packing[27]  10
    x[19]     packing[29]  166
    x[19]     packing[30]  4
    x[19]     packing[31]  57
    x[19]     packing[32]  124
    x[19]     packing[35]  198
    x[19]     packing[36]  132
    x[19]     packing[41]  111
    x[19]     packing[42]  73
    x[19]     packing[43]  169
    x[19]     packing[45]  154
    x[19]     packing[47]  39
    x[19]     packing[48]  164
    x[19]     packing[49]  43
    x[19]     R60       1
    x[19]     R64       1
    x[19]     R66       1
    x[20]     OBJ       173
    x[20]     packing[1]  70
    x[20]     packing[2]  49
    x[20]     packing[3]  113
    x[20]     packing[4]  53
    x[20]     packing[6]  93
    x[20]     packing[7]  136
    x[20]     packing[8]  134
    x[20]     packing[9]  130
    x[20]     packing[10]  91
    x[20]     packing[11]  73
    x[20]     packing[12]  137
    x[20]     packing[13]  93
    x[20]     packing[14]  197
    x[20]     packing[15]  162
    x[20]     packing[17]  67
    x[20]     packing[20]  101
    x[20]     packing[22]  67
    x[20]     packing[23]  138
    x[20]     packing[24]  24
    x[20]     packing[25]  181
    x[20]     packing[26]  126
    x[20]     packing[27]  47
    x[20]     packing[28]  26
    x[20]     packing[29]  177
    x[20]     packing[30]  194
    x[20]     packing[32]  139
    x[20]     packing[33]  149
    x[20]     packing[34]  86
    x[20]     packing[35]  147
    x[20]     packing[36]  119
    x[20]     packing[37]  107
    x[20]     packing[38]  169
    x[20]     packing[39]  94
    x[20]     packing[40]  34
    x[20]     packing[41]  122
    x[20]     packing[42]  78
    x[20]     packing[44]  58
    x[20]     packing[45]  164
    x[20]     packing[46]  198
    x[20]     packing[47]  19
    x[20]     packing[48]  10
    x[20]     packing[49]  132
    x[20]     R60       1
    x[20]     R61       1
    x[20]     R62       1
    x[20]     R63       1
    x[20]     R64       1
    x[20]     R65       1
    x[20]     R67       1
    x[20]     R68       1
    x[20]     R69       1
    MARKER    'MARKER'                 'INTEND'
RHS
    RHS1      packing[0]  901
    RHS1      packing[1]  588
    RHS1      packing[2]  744
    RHS1      packing[3]  753
    RHS1      packing[4]  666
    RHS1      packing[5]  758
    RHS1      packing[6]  884
    RHS1      packing[7]  679
    RHS1      packing[8]  808
    RHS1      packing[9]  723
    RHS1      packing[10]  720
    RHS1      packing[11]  863
    RHS1      packing[12]  737
    RHS1      packing[13]  815
    RHS1      packing[14]  865
    RHS1      packing[15]  797
    RHS1      packing[16]  774
    RHS1      packing[17]  494
    RHS1      packing[18]  601
    RHS1      packing[19]  327
    RHS1      packing[20]  813
    RHS1      packing[21]  804
    RHS1      packing[22]  673
    RHS1      packing[23]  804
    RHS1      packing[24]  826
    RHS1      packing[25]  732
    RHS1      packing[26]  691
    RHS1      packing[27]  815
    RHS1      packing[28]  709
    RHS1      packing[29]  806
    RHS1      packing[30]  863
    RHS1      packing[31]  1046
    RHS1      packing[32]  888
    RHS1      packing[33]  981
    RHS1      packing[34]  875
    RHS1      packing[35]  736
    RHS1      packing[36]  690
    RHS1      packing[37]  602
    RHS1      packing[38]  931
    RHS1      packing[39]  946
    RHS1      packing[40]  898
    RHS1      packing[41]  1214
    RHS1      packing[42]  632
    RHS1      packing[43]  492
    RHS1      packing[44]  858
    RHS1      packing[45]  919
    RHS1      packing[46]  579
    RHS1      packing[47]  715
    RHS1      packing[48]  799
    RHS1      packing[49]  729
    RHS1      R60       4
    RHS1      R61       5
    RHS1      R62       6
    RHS1      R63       6
    RHS1      R64       5
    RHS1      R65       5
    RHS1      R66       3
    RHS1      R67       6
    RHS1      R68       6
    RHS1      R69       4
BOUNDS
 BV BND1      x[1]    
 BV BND1      x[2]    
 BV BND1      x[3]    
 BV BND1      x[4]    
 BV BND1      x[5]    
 BV BND1      x[6]    
 BV BND1      x[7]    
 BV BND1      x[8]    
 BV BND1      x[9]    
 BV BND1      x[10]   
 BV BND1      x[11]   
 BV BND1      x[12]   
 BV BND1      x[13]   
 BV BND1      x[14]   
 BV BND1      x[15]   
 BV BND1      x[16]   
 BV BND1      x[17]   
 BV BND1      x[18]   
 BV BND1      x[19]   
 BV BND1      x[20]   
ENDATA
